SAT
-1 -100 -99 98 22 13 50 76 -19 97 -74 -45 -96 32 94 -23 83 31 88 33 61 -93 -92 -41 82 -12 -77 -16 42 -10 47 15 29 11 78 -28 69 -39 6 66 -58 -52 71 -36 75 46 44 -38 -37 90 -62 -5 2 -26 86 -40 80 79 3 54 20 -43 -67 -85 -81 9 -17 -91 -14 -7 34 -95 -65 -53 68 73 -51 4 25 -24 59 21 55 57 -64 56 -30 72 -87 -48 8 -63 -49 84 70 60 35 -27 -18 -89 0
